presolving:
(round 1, fast)       19630 del vars, 604 del conss, 0 add conss, 19026 chg bounds, 290 chg sides, 0 chg coeffs, 0 upgd conss, 0 impls, 0 clqs
(round 2, fast)       19630 del vars, 604 del conss, 0 add conss, 33466 chg bounds, 290 chg sides, 0 chg coeffs, 0 upgd conss, 0 impls, 0 clqs
   (0.4s) running MILP presolver
   (0.6s) MILP presolver (2 rounds): 0 aggregations, 0 fixings, 444 bound changes
(round 3, medium)     19630 del vars, 604 del conss, 0 add conss, 33910 chg bounds, 290 chg sides, 0 chg coeffs, 0 upgd conss, 0 impls, 0 clqs
   (0.8s) probing: 51/302 (16.9%) - 0 fixings, 0 aggregations, 0 implications, 0 bound changes
   (0.8s) probing aborted: 50/50 successive totally useless probings
   (0.8s) symmetry computation started: requiring (bin +, int -, cont +), (fixed: bin -, int +, cont -)
   (0.8s) no symmetry present
presolving (4 rounds: 4 fast, 2 medium, 1 exhaustive):
 19630 deleted vars, 604 deleted constraints, 0 added constraints, 33910 tightened bounds, 0 added holes, 290 changed sides, 0 changed coefficients
 0 implications, 0 cliques
presolved problem has 19328 variables (302 bin, 0 int, 0 impl, 19026 cont) and 365 constraints
    365 constraints of type <linear>
Presolving Time: 0.67

 time | node  | left  |LP iter|LP it/n|mem/heur|mdpt |vars |cons |rows |cuts |sepa|confs|strbr|  dualbound   | primalbound  |  gap   | compl. 
p 0.9s|     1 |     0 |    73 |     - |   locks|   0 |  19k| 365 | 365 |   0 |  0 |   0 |   0 | 0.000000e+00 | 3.967542e+07 |    Inf | unknown
i 1.0s|     1 |     0 |    73 |     - |  oneopt|   0 |  19k| 365 | 365 |   0 |  0 |   0 |   0 | 0.000000e+00 | 9.825058e+06 |    Inf | unknown
  1.9s|     1 |     0 |  1771 |     - |   153M |   0 |  19k| 365 | 365 |   0 |  0 |   0 |   0 | 2.870317e+06 | 9.825058e+06 | 242.30%| unknown
r 1.9s|     1 |     0 |  1771 |     - |simplero|   0 |  19k| 365 | 365 |   0 |  0 |   0 |   0 | 2.870317e+06 | 3.017112e+06 |   5.11%| unknown
  2.0s|     1 |     0 |  1824 |     - |   158M |   0 |  19k| 365 | 369 |   4 |  1 |   0 |   0 | 2.870648e+06 | 3.017112e+06 |   5.10%| unknown
  2.1s|     1 |     0 |  1857 |     - |   159M |   0 |  19k| 365 | 370 |   5 |  2 |   0 |   0 | 2.870793e+06 | 3.017112e+06 |   5.10%| unknown
  2.2s|     1 |     0 |  1862 |     - |   159M |   0 |  19k| 365 | 371 |   6 |  3 |   0 |   0 | 2.870796e+06 | 3.017112e+06 |   5.10%| unknown
r 2.2s|     1 |     0 |  1862 |     - |simplero|   0 |  19k| 365 | 371 |   6 |  3 |   0 |   0 | 2.870796e+06 | 2.932744e+06 |   2.16%| unknown
  2.3s|     1 |     0 |  1863 |     - |   159M |   0 |  19k| 365 | 373 |   8 |  5 |   0 |   0 | 2.870797e+06 | 2.932744e+06 |   2.16%| unknown
  2.4s|     1 |     0 |  1863 |     - |   165M |   0 |  19k| 365 | 373 |   8 |  5 |   0 |   0 | 2.870797e+06 | 2.932744e+06 |   2.16%| unknown
  2.6s|     1 |     0 |  1879 |     - |   165M |   0 |  19k| 365 | 374 |   9 |  6 |   0 |   0 | 2.870802e+06 | 2.932744e+06 |   2.16%| unknown
  2.8s|     1 |     0 |  1882 |     - |   166M |   0 |  19k| 365 | 375 |  10 |  7 |   0 |   0 | 2.870803e+06 | 2.932744e+06 |   2.16%| unknown
  3.0s|     1 |     0 |  1894 |     - |   166M |   0 |  19k| 365 | 377 |  12 |  8 |   0 |   0 | 2.870808e+06 | 2.932744e+06 |   2.16%| unknown
  3.3s|     1 |     0 |  1894 |     - |   166M |   0 |  19k| 234 | 377 |  12 | 10 |   0 |   0 | 2.870808e+06 | 2.932744e+06 |   2.16%| unknown
  3.5s|     1 |     0 |  1897 |     - |   166M |   0 |  19k| 234 | 379 |  14 | 11 |   0 |   0 | 2.870810e+06 | 2.932744e+06 |   2.16%| unknown
 time | node  | left  |LP iter|LP it/n|mem/heur|mdpt |vars |cons |rows |cuts |sepa|confs|strbr|  dualbound   | primalbound  |  gap   | compl. 
d 3.9s|     1 |     0 |  1980 |     - |farkasdi|   0 |  19k| 234 | 379 |   0 | 13 |   0 |   0 | 2.870810e+06 | 2.924815e+06 |   1.88%| unknown
L 9.4s|     1 |     0 |  4465 |     - |    alns|   0 |  19k| 235 | 379 |  14 | 13 |   1 |   0 | 2.870810e+06 | 2.924275e+06 |   1.86%| unknown
(run 1, node 1) restarting after 131 global fixings of integer variables

(restart) converted 14 cuts from the global cut pool into linear constraints

presolving:
(round 1, fast)       8384 del vars, 0 del conss, 0 add conss, 0 chg bounds, 0 chg sides, 0 chg coeffs, 0 upgd conss, 0 impls, 0 clqs
   (11.5s) running MILP presolver
   (11.5s) MILP presolver found nothing
(round 2, exhaustive) 8384 del vars, 0 del conss, 0 add conss, 0 chg bounds, 0 chg sides, 0 chg coeffs, 3 upgd conss, 0 impls, 0 clqs
presolving (3 rounds: 3 fast, 2 medium, 2 exhaustive):
 8384 deleted vars, 0 deleted constraints, 0 added constraints, 0 tightened bounds, 0 added holes, 0 changed sides, 0 changed coefficients
 3 implications, 0 cliques
presolved problem has 10944 variables (171 bin, 0 int, 0 impl, 10773 cont) and 249 constraints
      3 constraints of type <varbound>
    246 constraints of type <linear>
Presolving Time: 2.69
transformed 100/100 original solutions to the transformed problem space

 time | node  | left  |LP iter|LP it/n|mem/heur|mdpt |vars |cons |rows |cuts |sepa|confs|strbr|  dualbound   | primalbound  |  gap   | compl. 
 13.3s|     1 |     0 |  5711 |     - |   250M |   0 |  10k| 249 | 248 |   0 |  0 |   1 |   0 | 2.870810e+06 | 2.924275e+06 |   1.86%| unknown
 13.3s|     1 |     0 |  5711 |     - |   250M |   0 |  10k| 249 | 248 |   0 |  0 |   1 |   0 | 2.870810e+06 | 2.924275e+06 |   1.86%| unknown
 13.5s|     1 |     0 |  5711 |     - |   251M |   0 |  10k| 236 | 248 |   0 |  2 |   1 |   0 | 2.870810e+06 | 2.924275e+06 |   1.86%| unknown
 16.4s|     1 |     2 |  7983 |     - |   251M |   0 |  10k| 236 | 248 |   0 |  4 |  37 |   1 | 2.870839e+06 | 2.924275e+06 |   1.86%| unknown
(run 2, node 1) restarting after 13 global fixings of integer variables

presolving:
(round 1, fast)       832 del vars, 0 del conss, 0 add conss, 0 chg bounds, 0 chg sides, 0 chg coeffs, 0 upgd conss, 3 impls, 0 clqs
presolving (2 rounds: 2 fast, 1 medium, 1 exhaustive):
 832 deleted vars, 0 deleted constraints, 0 added constraints, 0 tightened bounds, 0 added holes, 0 changed sides, 0 changed coefficients
 3 implications, 0 cliques
presolved problem has 10112 variables (158 bin, 0 int, 0 impl, 9954 cont) and 236 constraints
      3 constraints of type <varbound>
    233 constraints of type <linear>
Presolving Time: 4.19
transformed 73/100 original solutions to the transformed problem space

 time | node  | left  |LP iter|LP it/n|mem/heur|mdpt |vars |cons |rows |cuts |sepa|confs|strbr|  dualbound   | primalbound  |  gap   | compl. 
 19.3s|     1 |     0 |  8852 |     - |   253M |   0 |  10k| 236 | 235 |   0 |  0 |  37 |   1 | 2.870839e+06 | 2.924275e+06 |   1.86%| unknown
 21.0s|     1 |     2 | 11203 |     - |   254M |   0 |  10k| 236 | 235 |   0 |  2 |  81 |   2 | 2.870839e+06 | 2.924275e+06 |   1.86%| unknown
*27.0s|    60 |    59 | 18845 | 244.4 |strongbr|  21 |  10k| 236 | 233 |   8 |  1 | 152 |  27 | 2.871207e+06 | 2.922916e+06 |   1.80%| unknown
 28.7s|   100 |   101 | 20779 | 166.7 |   257M |  21 |  10k| 236 | 234 |  19 |  1 | 152 |  47 | 2.871232e+06 | 2.922916e+06 |   1.80%| unknown
r31.0s|   152 |   151 | 23492 | 127.8 |simplero|  25 |  10k| 236 | 233 |  26 |  0 | 152 |  61 | 2.871288e+06 | 2.920131e+06 |   1.70%| unknown
r31.0s|   155 |   154 | 23560 | 125.8 |shifting|  25 |  10k| 236 | 234 |  27 |  1 | 152 |  61 | 2.871288e+06 | 2.917139e+06 |   1.60%| unknown
r32.2s|   192 |   191 | 25780 | 113.2 |simplero|  29 |  10k| 236 | 233 |  27 |  0 | 152 |  67 | 2.871288e+06 | 2.917100e+06 |   1.60%| unknown
r32.2s|   192 |   191 | 25791 | 113.2 |simplero|  29 |  10k| 236 | 234 |  28 |  1 | 152 |  67 | 2.871288e+06 | 2.916654e+06 |   1.58%| unknown
 32.4s|   200 |   201 | 25919 | 109.4 |   260M |  29 |  10k| 236 | 234 |  29 |  1 | 152 |  69 | 2.871288e+06 | 2.916654e+06 |   1.58%| unknown
 35.3s|   300 |   301 | 30173 |  87.2 |   262M |  31 |  10k| 236 | 238 |  41 |  1 | 152 |  85 | 2.871330e+06 | 2.916654e+06 |   1.58%| unknown
L39.1s|   392 |   393 | 34400 |  77.5 |    rins|  33 |  10k| 236 | 236 |  45 |  1 | 152 |  92 | 2.871379e+06 | 2.916519e+06 |   1.57%| unknown
 39.5s|   400 |   401 | 34771 |  76.9 |   263M |  33 |  10k| 236 | 235 |  45 |  1 | 152 |  95 | 2.871379e+06 | 2.916519e+06 |   1.57%| unknown
r39.9s|   406 |   405 | 35727 |  78.1 |simplero|  33 |  10k| 236 | 233 |  45 |  0 | 152 |  95 | 2.871379e+06 | 2.915623e+06 |   1.54%| unknown
r39.9s|   408 |   407 | 35751 |  77.8 |simplero|  33 |  10k| 236 | 233 |  45 |  0 | 152 |  95 | 2.871379e+06 | 2.905047e+06 |   1.17%| unknown
 42.8s|   500 |   501 | 40037 |  72.1 |   265M |  33 |  10k| 236 | 235 |  52 |  1 | 152 |  99 | 2.871470e+06 | 2.905047e+06 |   1.17%| unknown
 time | node  | left  |LP iter|LP it/n|mem/heur|mdpt |vars |cons |rows |cuts |sepa|confs|strbr|  dualbound   | primalbound  |  gap   | compl. 
r46.9s|   582 |   579 | 43732 |  68.3 |simplero|  42 |  10k| 236 | 236 |  60 |  1 | 152 | 107 | 2.871470e+06 | 2.897853e+06 |   0.92%| unknown
*46.9s|   582 |   579 | 43733 |  68.3 |    LP  |  42 |  10k| 236 | 236 |  60 |  3 | 152 | 107 | 2.871470e+06 | 2.897804e+06 |   0.92%| unknown
*47.0s|   588 |   579 | 43934 |  67.9 |    LP  |  45 |  10k| 236 | 236 |  60 |  2 | 152 | 107 | 2.871470e+06 | 2.896992e+06 |   0.89%| unknown
 47.5s|   600 |   591 | 44431 |  67.4 |   268M |  45 |  10k| 236 | 233 |  64 |  2 | 152 | 107 | 2.871470e+06 | 2.896992e+06 |   0.89%| unknown
 50.6s|   700 |   691 | 48731 |  63.9 |   270M |  45 |  10k| 236 | 234 |  69 |  1 | 193 | 111 | 2.871470e+06 | 2.896992e+06 |   0.89%| unknown
L54.7s|   788 |   203 | 52741 |  61.9 |    rins|  45 |  10k| 236 | 233 |  82 |  1 | 195 | 111 | 2.871835e+06 | 2.876732e+06 |   0.17%|   6.81%
 55.1s|   800 |   203 | 53013 |  61.3 |   273M |  45 |  10k| 236 | 233 |  84 |  2 | 195 | 111 | 2.871835e+06 | 2.876732e+06 |   0.17%|   8.82%
 57.0s|   900 |   199 | 54593 |  56.2 |   273M |  45 |  10k| 236 | 233 |  91 |  1 | 195 | 112 | 2.871867e+06 | 2.876732e+06 |   0.17%|  20.93%
 59.4s|  1000 |   172 | 56295 |  52.3 |   274M |  45 |  10k| 236 | 235 | 101 |  2 | 198 | 113 | 2.872152e+06 | 2.876732e+06 |   0.16%|  41.57%
 61.4s|  1100 |   131 | 58046 |  49.1 |   274M |  45 |  10k| 236 | 235 | 109 |  1 | 198 | 115 | 2.873942e+06 | 2.876732e+06 |   0.10%|  69.95%
 63.3s|  1200 |    93 | 59547 |  46.3 |   274M |  45 |  10k| 236 | 234 | 115 |  1 | 198 | 116 | 2.874644e+06 | 2.876732e+06 |   0.07%|  87.08%
 65.3s|  1300 |    13 | 60577 |  43.5 |   275M |  45 |  10k| 237 | 236 | 122 |  0 | 200 | 117 | 2.875832e+06 | 2.876732e+06 |   0.03%|  99.26%

SCIP Status        : problem is solved [optimal solution found]
Solving Time (sec) : 65.31
Solving Nodes      : 1306 (total of 1308 nodes in 3 runs)
Primal Bound       : +2.87673218250355e+06 (584 solutions)
Dual Bound         : +2.87673218250355e+06
Gap                : 0.00 %
Solve Status: optimal
Solve Time: 65.33 seconds
